webassembly/ejemplos_dzn/16/folder16_json_24.dzn
TERM = { '.', 's(2)', 's(5)', 's(4)', 'in_1', 'local_0', 'local_1', 'in_6', 'in_2', 'in_4', 'in_3', 'in_8', 's(6)', 's(1)', 's(0)', 'in_7', 'in_5', 's(3)', 'in_0'};
null = '.';
s = 16;
n = 14;
ndeps = 9;
max_registers_sz = 4;
NR = 1;
registers = [|'local_0', 's(3)'|];
dependencies = [|'i32.load8_s_0', 'call[function_index(0)]_1', |'call[function_index(0)]_1', 'i32.load8_s_2', |'i32.store16_4', 'call[function_index(1)]_8', |'call[function_index(1)]_8', 'call[function_index(2)]_10', |'call[function_index(2)]_10', 'i32.store_11', |'i32.store_11', 'i32.store16_13', |'i32.store16_13', 'call[function_index(3)]_14', |'call[function_index(3)]_14', 'i32.store16_15', |'i32.load8_s_2', 'i32.store16_4'|];
GET_ENUM = { GET1, GET2, GET3, GET4, GET5};
SET_ENUM = { SET1, SET2, SET3, SET4, SET5};
TEE_ENUM = { TEE1, TEE2, TEE3, TEE4, TEE5};
N = 14;
OP = { 'call[function_index(0)]_1', 'call[function_index(1)]_8', 'i32.sub_0', 'i32.sub_1', 'call[function_index(2)]_10', 'call[function_index(3)]_14', 'i32.load8_s_0', 'i32.load8_s_2', 'i32.store16_4', 'i32.store_11', 'i32.const_0', 'i32.store16_13', 'i32.store16_15', 'local.get_0' };
in_ops = [1, 0, 2, 2, 2, 0, 1, 1, 2, 2, 0, 2, 2, 0 ];
out_ops = [0, 0, 1, 1, 1, 1, 1, 1, 0, 0, 1, 0, 0, 1 ];
in1 = ['s(0)', '.', 'in_3', 's(2)', 'local_1', '.', 'in_0', 'in_1', 's(1)', 's(4)', '.', 's(6)', 's(5)', '.' ];
in2 = ['.', '.', 'in_4', 'in_5', 's(3)', '.', '.', '.', 'in_2', 'in_6', '.', 'in_7', 'in_8', '.' ];
in3 = ['.', '.', '.', '.', '.', '.', '.', '.', '.', '.', '.', '.', '.', '.' ];
out1 = ['.', '.', 's(2)', 's(3)', 's(4)', 's(5)', 's(0)', 's(1)', '.', '.', 's(6)', '.', '.', 'local_1' ];
out2 = ['.', '.', '.', '.', '.', '.', '.', '.', '.', '.', '.', '.', '.', '.' ];
out3 = ['.', '.', '.', '.', '.', '.', '.', '.', '.', '.', '.', '.', '.', '.' ];
comm = [false, false, false, false, false, false, false, false, false, false, false, false, false, false ];
gas = [1, 1, 1, 1, 1, 1, 1, 1, 1, 1, 1, 1, 1, 1 ];
sz = [1, 1, 1, 1, 1, 1, 1, 1, 1, 1, 1, 1, 1, 1 ];
stor = [true, true, false, false, true, true, false, false, true, true, false, true, true, false ];
lb = [ 1, 1, 1, 1, 1, 1, 1, 1, 1, 1, 1, 1, 1, 1 ];
ub = [ 16, 16, 16, 16, 16, 16, 16, 16, 16, 16, 16, 16, 16, 16 ];
startstack = [ 'in_0', 'in_1', 'in_2', 'in_3', 'in_4', 'in_5', 'in_6', 'in_7', 'in_8', null, null, null, null, null ];
endstack = [ null, null, null, null, null, null, null, null, null, null, null, null, null, null ];
