webassembly/ejemplos_results/16/folder16_json_24.txt
=====UNKNOWN=====
% time elapsed: 0.97 s
